NAME: ch7
TYPE: TSP
COMMENT: 7 city Problem (churritz)
DIMENSION: 7
EDGE_WEIGHT_TYPE: EUC_2D
NODE_COORD_SECTION
1 37.4393516691 541.2090699418
2 612.1759508571 494.3166877396
3 38.1312338227 353.1484581781
4 53.4418081065 131.4849013650
5 143.0606355347 631.7200953923
6 689.9451267256 468.5354998742
7 112.7478815786 529.4177578260
EOF
